
include ${pot}.lmp
include kalj.lmp
units lj
atom_style atomic

variable dimensions equal 3
variable density equal 1.2
variable fraca equal 0.8

dimension ${dimensions}
dimension 3
read_restart ${prevbasename}.final.lmprestart.${prevsteps}
read_restart equil/kalj_T0.65_n360_v300_350000_1.final.lmprestart.${prevsteps}
read_restart equil/kalj_T0.65_n360_v300_350000_1.final.lmprestart.350000
Reading restart file ...
  restart file = 15 Sep 2022, LAMMPS = 15 Sep 2022
  restoring atom style atomic from restart
  orthogonal box = (0 0 0) to (6.6943295 6.6943295 6.6943295)
  1 by 2 by 2 MPI processor grid
  restoring pair style lj/cut from restart
  360 atoms
  read_restart CPU = 0.002 seconds
include ${pot}_particles.lmp
include kalj_particles.lmp
mass * 1.0 #  set mass 1.0 for all types

pair_style lj/cut 2.5
#pair coeffs type1 type2 eps sigma
pair_coeff 1 1 1.0 1.00 2.5
pair_coeff 1 2 1.5 0.80 2.0
pair_coeff 2 2 0.5 0.88 2.2
pair_modify shift yes
reset_timestep 0

print "Setting up annealing run"
Setting up annealing run
dump 1 all atom ${dumptime} ${basename}.lammpstrj
dump 1 all atom 100000 ${basename}.lammpstrj
dump 1 all atom 100000 equil/kalj_T0.6_n360_v300_1000000_1.lammpstrj
#dump_modify 1 sort id scale no

restart ${restarttime} ${basename}.restart
restart 1000000 ${basename}.restart
restart 1000000 equil/kalj_T0.6_n360_v300_1000000_1.restart
restart ${steps} ${basename}.final.lmprestart
restart 1000000 ${basename}.final.lmprestart
restart 1000000 equil/kalj_T0.6_n360_v300_1000000_1.final.lmprestart

thermo ${thermotime}
thermo 50000
timestep ${timestep}
timestep 0.003

neighbor 0.5 bin
neigh_modify every 1 delay ${neighborstep} check yes
neigh_modify every 1 delay 25 check yes

velocity all create ${temp} ${id} dist gaussian
velocity all create 0.6 ${id} dist gaussian
velocity all create 0.6 1 dist gaussian
fix 1 all nvt temp ${temp} ${temp} ${taut}
fix 1 all nvt temp 0.6 ${temp} ${taut}
fix 1 all nvt temp 0.6 0.6 ${taut}
fix 1 all nvt temp 0.6 0.6 0.3
Resetting global fix info from restart file:
  fix style: nvt, fix ID: 1
run ${steps}
run 1000000
Generated 0 of 1 mixed pair_coeff terms from geometric mixing rule
All restart file global fix info was re-assigned
Neighbor list info ...
  update: every = 1 steps, delay = 25 steps, check = yes
  max neighbors/atom: 2000, page size: 100000
  master list distance cutoff = 3
  ghost atom cutoff = 3
  binsize = 1.5, bins = 5 5 5
  1 neighbor lists, perpetual/occasional/extra = 1 0 0
  (1) pair lj/cut, perpetual
      attributes: half, newton on
      pair build: half/bin/atomonly/newton
      stencil: half/bin/3d
      bin: standard
Per MPI rank memory allocation (min/avg/max) = 4.116 | 4.116 | 4.116 Mbytes
   Step          Temp          E_pair         E_mol          TotEng         Press     
         0   0.6           -6.4854017      0             -5.5879017      6.4893149    
     50000   0.60847435    -6.7276909      0             -5.8175147      4.8961705    
    100000   0.59392381    -6.7662648      0             -5.8778537      4.7633122    
    150000   0.60623573    -6.6935305      0             -5.7867028      5.3421291    
    200000   0.66204545    -6.6765027      0             -5.686193       5.3399469    
    250000   0.61552299    -6.7028935      0             -5.7821737      5.2199658    
    300000   0.59460251    -6.6475353      0             -5.758109       5.5804182    
    350000   0.62815544    -6.66876        0             -5.7291441      5.2488727    
    400000   0.60395322    -6.7705293      0             -5.8671159      4.6572004    
    450000   0.62147105    -6.7132706      0             -5.7836535      5.2292787    
    500000   0.57473248    -6.6957009      0             -5.8359969      5.2581541    
    550000   0.61888146    -6.7788833      0             -5.8531398      4.8348768    
    600000   0.58626742    -6.6240987      0             -5.7471403      5.6321677    
    650000   0.54613755    -6.6324755      0             -5.8155447      5.4083243    
    700000   0.60705504    -6.7229605      0             -5.8149073      5.1827761    
    750000   0.56146202    -6.7069793      0             -5.8671256      5.1540716    
    800000   0.61016139    -6.7034599      0             -5.7907602      5.2575831    
    850000   0.58960285    -6.7833502      0             -5.9014026      4.5894111    
    900000   0.63339806    -6.6724172      0             -5.7249593      5.3613321    
    950000   0.61682571    -6.6022598      0             -5.6795914      5.936032     
   1000000   0.59618546    -6.6688587      0             -5.7770646      5.3676529    
Loop time of 101.152 on 4 procs for 1000000 steps with 360 atoms

Performance: 2562481.887 tau/day, 9886.118 timesteps/s, 3.559 Matom-step/s
99.6% CPU use with 4 MPI tasks x 1 OpenMP threads

MPI task timing breakdown:
Section |  min time  |  avg time  |  max time  |%varavg| %total
---------------------------------------------------------------
Pair    | 52.571     | 53.237     | 54.368     |   9.3 | 52.63
Neigh   | 5.1248     | 5.154      | 5.1825     |   1.1 |  5.10
Comm    | 35.269     | 37.597     | 39.693     |  29.7 | 37.17
Output  | 0.0029711  | 0.0030329  | 0.0032147  |   0.2 |  0.00
Modify  | 2.7195     | 4.1662     | 5.6444     |  66.0 |  4.12
Other   |            | 0.9951     |            |       |  0.98

Nlocal:             90 ave          92 max          87 min
Histogram: 1 0 0 0 0 0 1 0 1 1
Nghost:        1241.75 ave        1262 max        1225 min
Histogram: 1 0 0 1 1 0 0 0 0 1
Neighs:         5184.5 ave        5288 max        5094 min
Histogram: 1 1 0 0 0 0 0 1 0 1

Total # of neighbors = 20738
Ave neighs/atom = 57.605556
Neighbor list builds = 29915
Dangerous builds = 497
Total wall time: 0:01:41
