
include ${pot}.lmp
include kalj.lmp
units lj
atom_style atomic

variable dimensions equal 3
variable density equal 1.2
variable fraca equal 0.8

dimension ${dimensions}
dimension 3
read_restart ${prevbasename}.final.lmprestart.${steps}
read_restart equil/kalj_T1_n360_v300_50000_1.final.lmprestart.${steps}
read_restart equil/kalj_T1_n360_v300_50000_1.final.lmprestart.50000
Reading restart file ...
  restart file = 15 Sep 2022, LAMMPS = 15 Sep 2022
  restoring atom style atomic from restart
  orthogonal box = (0 0 0) to (6.6943295 6.6943295 6.6943295)
  1 by 2 by 2 MPI processor grid
  restoring pair style lj/cut from restart
  360 atoms
  read_restart CPU = 0.002 seconds
include ${pot}_particles.lmp
include kalj_particles.lmp
mass * 1.0 #  set mass 1.0 for all types

pair_style lj/cut 2.5
#pair coeffs type1 type2 eps sigma
pair_coeff 1 1 1.0 1.00 2.5
pair_coeff 1 2 1.5 0.80 2.0
pair_coeff 2 2 0.5 0.88 2.2
pair_modify shift yes
reset_timestep 0

print "Setting up equilibration run"
Setting up equilibration run
variable dumptime2 equal ${steps}/2000
variable dumptime2 equal 50000/2000
dump 1 all dcd ${dumptime2} ${basename}.unwrap.dcd
dump 1 all dcd 25 ${basename}.unwrap.dcd
dump 1 all dcd 25 prod/kalj_T1_n360_v300_prod_50000_1.unwrap.dcd
#dump 2 all dcd ${dumptime2} ${basename}.dcd
dump_modify 1 unwrap yes
#dump_modify 2 unwrap no

restart ${restarttime} ${basename}.restart
restart 30000 ${basename}.restart
restart 30000 prod/kalj_T1_n360_v300_prod_50000_1.restart
restart ${steps} ${basename}.final.lmprestart
restart 50000 ${basename}.final.lmprestart
restart 50000 prod/kalj_T1_n360_v300_prod_50000_1.final.lmprestart

thermo ${thermotime}
thermo 2000
timestep ${timestep}
timestep 0.002

neighbor 0.5 bin
neigh_modify every 1 delay ${neighborstep} check yes
neigh_modify every 1 delay 20 check yes

#velocity all create ${temp} ${id} dist gaussian
fix 1 all nvt temp ${temp} ${temp} ${taut}
fix 1 all nvt temp 1 ${temp} ${taut}
fix 1 all nvt temp 1 1 ${taut}
fix 1 all nvt temp 1 1 0.2
Resetting global fix info from restart file:
  fix style: nvt, fix ID: 1

variable steps4 equal ${steps}/4
variable steps4 equal 50000/4
run ${steps4}
run 12500
Generated 0 of 1 mixed pair_coeff terms from geometric mixing rule
All restart file global fix info was re-assigned
Neighbor list info ...
  update: every = 1 steps, delay = 20 steps, check = yes
  max neighbors/atom: 2000, page size: 100000
  master list distance cutoff = 3
  ghost atom cutoff = 3
  binsize = 1.5, bins = 5 5 5
  1 neighbor lists, perpetual/occasional/extra = 1 0 0
  (1) pair lj/cut, perpetual
      attributes: half, newton on
      pair build: half/bin/atomonly/newton
      stencil: half/bin/3d
      bin: standard
Per MPI rank memory allocation (min/avg/max) = 3.138 | 3.138 | 3.138 Mbytes
   Step          Temp          E_pair         E_mol          TotEng         Press     
         0   1.0108632     -6.013634       0             -4.5015511      9.960712     
      2000   0.97791638    -5.8804359      0             -4.417636       10.84871     
      4000   0.95186572    -6.0468417      0             -4.6230092      9.6139793    
      6000   0.97886946    -6.0562907      0             -4.5920652      9.5700671    
      8000   1.0168331     -5.9534857      0             -4.4324728      10.274187    
     10000   1.0837255     -5.9524617      0             -4.331389       10.462047    
     12000   0.95832388    -5.9913338      0             -4.557841       10.180617    
     12500   1.0406225     -6.1020685      0             -4.5454707      9.4486959    
Loop time of 1.08155 on 4 procs for 12500 steps with 360 atoms

Performance: 1997133.108 tau/day, 11557.483 timesteps/s, 4.161 Matom-step/s
99.0% CPU use with 4 MPI tasks x 1 OpenMP threads

MPI task timing breakdown:
Section |  min time  |  avg time  |  max time  |%varavg| %total
---------------------------------------------------------------
Pair    | 0.63346    | 0.65225    | 0.67405    |   1.8 | 60.31
Neigh   | 0.057343   | 0.058761   | 0.060296   |   0.4 |  5.43
Comm    | 0.2835     | 0.30418    | 0.32396    |   2.6 | 28.12
Output  | 0.015357   | 0.018314   | 0.024644   |   2.7 |  1.69
Modify  | 0.030401   | 0.031588   | 0.032829   |   0.6 |  2.92
Other   |            | 0.01646    |            |       |  1.52

Nlocal:             90 ave          92 max          88 min
Histogram: 1 0 1 0 0 0 0 1 0 1
Nghost:           1238 ave        1243 max        1230 min
Histogram: 1 0 0 0 0 0 1 1 0 1
Neighs:        5188.25 ave        5370 max        5014 min
Histogram: 1 0 0 0 1 1 0 0 0 1

Total # of neighbors = 20753
Ave neighs/atom = 57.647222
Neighbor list builds = 343
Dangerous builds = 0
Total wall time: 0:00:01
