
include ${pot}.lmp
include kalj.lmp
units lj
atom_style atomic

variable dimensions equal 3
variable density equal 1.2
variable fraca equal 0.8

dimension ${dimensions}
dimension 3
read_restart ${prevbasename}.final.lmprestart.${steps}
read_restart equil/kalj_T0.55_n360_v300_3000000_1.final.lmprestart.${steps}
read_restart equil/kalj_T0.55_n360_v300_3000000_1.final.lmprestart.3000000
Reading restart file ...
  restart file = 15 Sep 2022, LAMMPS = 15 Sep 2022
  restoring atom style atomic from restart
  orthogonal box = (0 0 0) to (6.6943295 6.6943295 6.6943295)
  1 by 2 by 2 MPI processor grid
  restoring pair style lj/cut from restart
  360 atoms
  read_restart CPU = 0.002 seconds
include ${pot}_particles.lmp
include kalj_particles.lmp
mass * 1.0 #  set mass 1.0 for all types

pair_style lj/cut 2.5
#pair coeffs type1 type2 eps sigma
pair_coeff 1 1 1.0 1.00 2.5
pair_coeff 1 2 1.5 0.80 2.0
pair_coeff 2 2 0.5 0.88 2.2
pair_modify shift yes
reset_timestep 0

print "Setting up equilibration run"
Setting up equilibration run
variable dumptime2 equal ${steps}/2000
variable dumptime2 equal 3000000/2000
dump 1 all dcd ${dumptime2} ${basename}.unwrap.dcd
dump 1 all dcd 1500 ${basename}.unwrap.dcd
dump 1 all dcd 1500 prod/kalj_T0.55_n360_v300_prod_3000000_1.unwrap.dcd
#dump 2 all dcd ${dumptime2} ${basename}.dcd
dump_modify 1 unwrap yes
#dump_modify 2 unwrap no

restart ${restarttime} ${basename}.restart
restart 3000000 ${basename}.restart
restart 3000000 prod/kalj_T0.55_n360_v300_prod_3000000_1.restart
restart ${steps} ${basename}.final.lmprestart
restart 3000000 ${basename}.final.lmprestart
restart 3000000 prod/kalj_T0.55_n360_v300_prod_3000000_1.final.lmprestart

thermo ${thermotime}
thermo 30000
timestep ${timestep}
timestep 0.003

neighbor 0.5 bin
neigh_modify every 1 delay ${neighborstep} check yes
neigh_modify every 1 delay 25 check yes

#velocity all create ${temp} ${id} dist gaussian
fix 1 all nvt temp ${temp} ${temp} ${taut}
fix 1 all nvt temp 0.55 ${temp} ${taut}
fix 1 all nvt temp 0.55 0.55 ${taut}
fix 1 all nvt temp 0.55 0.55 0.3
Resetting global fix info from restart file:
  fix style: nvt, fix ID: 1

variable steps4 equal ${steps}/4
variable steps4 equal 3000000/4
run ${steps4}
run 750000
Generated 0 of 1 mixed pair_coeff terms from geometric mixing rule
All restart file global fix info was re-assigned
Neighbor list info ...
  update: every = 1 steps, delay = 25 steps, check = yes
  max neighbors/atom: 2000, page size: 100000
  master list distance cutoff = 3
  ghost atom cutoff = 3
  binsize = 1.5, bins = 5 5 5
  1 neighbor lists, perpetual/occasional/extra = 1 0 0
  (1) pair lj/cut, perpetual
      attributes: half, newton on
      pair build: half/bin/atomonly/newton
      stencil: half/bin/3d
      bin: standard
Per MPI rank memory allocation (min/avg/max) = 3.137 | 3.138 | 3.139 Mbytes
   Step          Temp          E_pair         E_mol          TotEng         Press     
         0   0.55481571    -6.7588133      0             -5.9289015      4.7707534    
     30000   0.55079752    -6.8369997      0             -6.0130984      4.2081817    
     60000   0.55706833    -6.7993763      0             -5.9660949      4.4732563    
     90000   0.52207469    -6.8521949      0             -6.0712582      4.0470209    
    120000   0.52523366    -6.788104       0             -6.0024419      4.4851411    
    150000   0.54089449    -6.8388731      0             -6.0297851      4.2823964    
    180000   0.58205476    -6.7830529      0             -5.912396       4.7288935    
    210000   0.54378243    -6.8413608      0             -6.0279529      4.1856181    
    240000   0.55250079    -6.8044878      0             -5.9780387      4.480696     
    270000   0.5301995     -6.8001163      0             -6.0070262      4.503676     
    300000   0.55389952    -6.823584       0             -5.9950426      4.3870974    
    330000   0.53429265    -6.7906182      0             -5.9914054      4.6644549    
    360000   0.53667168    -6.8211688      0             -6.0183974      4.5268895    
    390000   0.52924235    -6.8066524      0             -6.0149941      4.4333143    
    420000   0.51448355    -6.8165298      0             -6.0469482      4.3722979    
    450000   0.52490147    -6.7139079      0             -5.9287428      5.0674593    
    480000   0.55325124    -6.8159133      0             -5.9883416      4.3327222    
    510000   0.55008521    -6.8160819      0             -5.9932462      4.3590469    
    540000   0.54685383    -6.780385       0             -5.9623829      4.534463     
    570000   0.54684857    -6.8005864      0             -5.9825921      4.2598882    
    600000   0.53013241    -6.7815359      0             -5.9885462      4.4255912    
    630000   0.56269416    -6.8265939      0             -5.9848972      4.3753187    
    660000   0.58633353    -6.7705963      0             -5.8935391      4.6143634    
    690000   0.54362148    -6.8125269      0             -5.9993598      4.3934534    
    720000   0.56122948    -6.787865       0             -5.9483593      4.6485243    
    750000   0.5591647     -6.7372369      0             -5.9008197      4.9835769    
Loop time of 62.6103 on 4 procs for 750000 steps with 360 atoms

Performance: 3104920.026 tau/day, 11978.858 timesteps/s, 4.312 Matom-step/s
99.7% CPU use with 4 MPI tasks x 1 OpenMP threads

MPI task timing breakdown:
Section |  min time  |  avg time  |  max time  |%varavg| %total
---------------------------------------------------------------
Pair    | 38.542     | 38.778     | 39.291     |   4.9 | 61.94
Neigh   | 3.5857     | 3.6098     | 3.6599     |   1.6 |  5.77
Comm    | 17.075     | 17.602     | 17.846     |   7.4 | 28.11
Output  | 0.069671   | 0.07371    | 0.082607   |   1.9 |  0.12
Modify  | 1.8328     | 1.8682     | 1.9129     |   2.1 |  2.98
Other   |            | 0.6785     |            |       |  1.08

Nlocal:             90 ave          95 max          86 min
Histogram: 1 0 1 0 0 1 0 0 0 1
Nghost:         1248.5 ave        1269 max        1233 min
Histogram: 1 0 1 0 1 0 0 0 0 1
Neighs:           5204 ave        5563 max        4953 min
Histogram: 1 0 0 2 0 0 0 0 0 1

Total # of neighbors = 20816
Ave neighs/atom = 57.822222
Neighbor list builds = 21188
Dangerous builds = 157
Total wall time: 0:01:02
