
include ${pot}.lmp
include kalj.lmp
units lj
atom_style atomic

variable dimensions equal 3
variable density equal 1.2
variable fraca equal 0.8

dimension ${dimensions}
dimension 3
read_restart ${prevbasename}.final.lmprestart.${prevsteps}
read_restart equil/kalj_T0.9_n360_v300_150000_1.final.lmprestart.${prevsteps}
read_restart equil/kalj_T0.9_n360_v300_150000_1.final.lmprestart.150000
Reading restart file ...
  restart file = 15 Sep 2022, LAMMPS = 15 Sep 2022
  restoring atom style atomic from restart
  orthogonal box = (0 0 0) to (6.6943295 6.6943295 6.6943295)
  1 by 2 by 2 MPI processor grid
  restoring pair style lj/cut from restart
  360 atoms
  read_restart CPU = 0.002 seconds
include ${pot}_particles.lmp
include kalj_particles.lmp
mass * 1.0 #  set mass 1.0 for all types

pair_style lj/cut 2.5
#pair coeffs type1 type2 eps sigma
pair_coeff 1 1 1.0 1.00 2.5
pair_coeff 1 2 1.5 0.80 2.0
pair_coeff 2 2 0.5 0.88 2.2
pair_modify shift yes
reset_timestep 0

print "Setting up annealing run"
Setting up annealing run
dump 1 all atom ${dumptime} ${basename}.lammpstrj
dump 1 all atom 50000 ${basename}.lammpstrj
dump 1 all atom 50000 equil/kalj_T0.8_n360_v300_150000_1.lammpstrj
#dump_modify 1 sort id scale no

restart ${restarttime} ${basename}.restart
restart 150000 ${basename}.restart
restart 150000 equil/kalj_T0.8_n360_v300_150000_1.restart
restart ${steps} ${basename}.final.lmprestart
restart 150000 ${basename}.final.lmprestart
restart 150000 equil/kalj_T0.8_n360_v300_150000_1.final.lmprestart

thermo ${thermotime}
thermo 5000
timestep ${timestep}
timestep 0.002

neighbor 0.5 bin
neigh_modify every 1 delay ${neighborstep} check yes
neigh_modify every 1 delay 25 check yes

velocity all create ${temp} ${id} dist gaussian
velocity all create 0.8 ${id} dist gaussian
velocity all create 0.8 1 dist gaussian
fix 1 all nvt temp ${temp} ${temp} ${taut}
fix 1 all nvt temp 0.8 ${temp} ${taut}
fix 1 all nvt temp 0.8 0.8 ${taut}
fix 1 all nvt temp 0.8 0.8 0.2
Resetting global fix info from restart file:
  fix style: nvt, fix ID: 1
run ${steps}
run 150000
Generated 0 of 1 mixed pair_coeff terms from geometric mixing rule
All restart file global fix info was re-assigned
Neighbor list info ...
  update: every = 1 steps, delay = 25 steps, check = yes
  max neighbors/atom: 2000, page size: 100000
  master list distance cutoff = 3
  ghost atom cutoff = 3
  binsize = 1.5, bins = 5 5 5
  1 neighbor lists, perpetual/occasional/extra = 1 0 0
  (1) pair lj/cut, perpetual
      attributes: half, newton on
      pair build: half/bin/atomonly/newton
      stencil: half/bin/3d
      bin: standard
Per MPI rank memory allocation (min/avg/max) = 4.114 | 4.115 | 4.116 Mbytes
   Step          Temp          E_pair         E_mol          TotEng         Press     
         0   0.8           -6.268331       0             -5.0716644      7.9726697    
      5000   0.81658553    -6.342204       0             -5.1207281      7.5116121    
     10000   0.75360604    -6.351187       0             -5.223918       7.5932386    
     15000   0.73960264    -6.4937446      0             -5.3874224      6.5134188    
     20000   0.80699722    -6.4068686      0             -5.1997352      7.1822495    
     25000   0.76534115    -6.3346602      0             -5.1898374      7.7953819    
     30000   0.80391892    -6.2767277      0             -5.074199       8.1799236    
     35000   0.78091617    -6.3263225      0             -5.1582021      7.8437103    
     40000   0.8326385     -6.3717711      0             -5.1262827      7.4777353    
     45000   0.79374679    -6.3101046      0             -5.1227917      7.9743281    
     50000   0.80028879    -6.235332       0             -5.0382333      8.187664     
     55000   0.76572669    -6.4072066      0             -5.2618071      7.3122702    
     60000   0.82062447    -6.3948834      0             -5.1673659      7.3480919    
     65000   0.74849828    -6.3861989      0             -5.2665702      7.4136444    
     70000   0.89874692    -6.2508488      0             -4.9064732      8.2421511    
     75000   0.79472589    -6.3958532      0             -5.2070757      7.2295273    
     80000   0.7962578     -6.3650397      0             -5.1739707      7.4477134    
     85000   0.86459616    -6.3955715      0             -5.1022797      7.4147897    
     90000   0.83515147    -6.3447548      0             -5.0955074      7.6150857    
     95000   0.76307887    -6.4341371      0             -5.2926983      6.8718973    
    100000   0.76142657    -6.3482893      0             -5.209322       7.6459493    
    105000   0.79338053    -6.2868755      0             -5.1001104      8.0190145    
    110000   0.86018684    -6.3343964      0             -5.0477003      7.7574866    
    115000   0.84319583    -6.3955501      0             -5.1342696      7.4194657    
    120000   0.83741509    -6.3809956      0             -5.1283622      7.6025827    
    125000   0.7939018     -6.3725753      0             -5.1850305      7.4463825    
    130000   0.72206234    -6.3718993      0             -5.2918143      7.4280222    
    135000   0.82685741    -6.3376505      0             -5.1008097      7.7676464    
    140000   0.72224843    -6.3343833      0             -5.25402        7.45438      
    145000   0.79323137    -6.3526327      0             -5.1660908      7.6019458    
    150000   0.81376773    -6.300452       0             -5.0831911      7.8028198    
Loop time of 15.3873 on 4 procs for 150000 steps with 360 atoms

Performance: 1684500.737 tau/day, 9748.268 timesteps/s, 3.509 Matom-step/s
99.6% CPU use with 4 MPI tasks x 1 OpenMP threads

MPI task timing breakdown:
Section |  min time  |  avg time  |  max time  |%varavg| %total
---------------------------------------------------------------
Pair    | 7.7841     | 7.8143     | 7.8926     |   1.6 | 50.78
Neigh   | 0.61173    | 0.6191     | 0.62881    |   0.8 |  4.02
Comm    | 5.8404     | 6.136      | 6.4204     |  10.2 | 39.88
Output  | 0.0018882  | 0.0019901  | 0.0022649  |   0.4 |  0.01
Modify  | 0.38364    | 0.63943    | 0.88291    |  28.3 |  4.16
Other   |            | 0.1765     |            |       |  1.15

Nlocal:             90 ave          92 max          88 min
Histogram: 1 0 1 0 0 0 0 1 0 1
Nghost:         1223.5 ave        1239 max        1210 min
Histogram: 1 0 1 0 0 0 1 0 0 1
Neighs:           5187 ave        5220 max        5142 min
Histogram: 1 0 0 0 1 0 0 0 1 1

Total # of neighbors = 20748
Ave neighs/atom = 57.633333
Neighbor list builds = 3592
Dangerous builds = 0
Total wall time: 0:00:15
