
include ${pot}.lmp
include kalj.lmp
units lj
atom_style atomic

variable dimensions equal 3
variable density equal 1.2
variable fraca equal 0.8

dimension ${dimensions}
dimension 3
read_restart ${prevbasename}.final.lmprestart.${prevsteps}
read_restart equil/kalj_T1_n360_v300_50000_1.final.lmprestart.${prevsteps}
read_restart equil/kalj_T1_n360_v300_50000_1.final.lmprestart.50000
Reading restart file ...
  restart file = 15 Sep 2022, LAMMPS = 15 Sep 2022
  restoring atom style atomic from restart
  orthogonal box = (0 0 0) to (6.6943295 6.6943295 6.6943295)
  1 by 2 by 2 MPI processor grid
  restoring pair style lj/cut from restart
  360 atoms
  read_restart CPU = 0.002 seconds
include ${pot}_particles.lmp
include kalj_particles.lmp
mass * 1.0 #  set mass 1.0 for all types

pair_style lj/cut 2.5
#pair coeffs type1 type2 eps sigma
pair_coeff 1 1 1.0 1.00 2.5
pair_coeff 1 2 1.5 0.80 2.0
pair_coeff 2 2 0.5 0.88 2.2
pair_modify shift yes
reset_timestep 0

print "Setting up annealing run"
Setting up annealing run
dump 1 all atom ${dumptime} ${basename}.lammpstrj
dump 1 all atom 50000 ${basename}.lammpstrj
dump 1 all atom 50000 equil/kalj_T0.9_n360_v300_150000_1.lammpstrj
#dump_modify 1 sort id scale no

restart ${restarttime} ${basename}.restart
restart 150000 ${basename}.restart
restart 150000 equil/kalj_T0.9_n360_v300_150000_1.restart
restart ${steps} ${basename}.final.lmprestart
restart 150000 ${basename}.final.lmprestart
restart 150000 equil/kalj_T0.9_n360_v300_150000_1.final.lmprestart

thermo ${thermotime}
thermo 5000
timestep ${timestep}
timestep 0.002

neighbor 0.5 bin
neigh_modify every 1 delay ${neighborstep} check yes
neigh_modify every 1 delay 25 check yes

velocity all create ${temp} ${id} dist gaussian
velocity all create 0.9 ${id} dist gaussian
velocity all create 0.9 1 dist gaussian
fix 1 all nvt temp ${temp} ${temp} ${taut}
fix 1 all nvt temp 0.9 ${temp} ${taut}
fix 1 all nvt temp 0.9 0.9 ${taut}
fix 1 all nvt temp 0.9 0.9 0.2
Resetting global fix info from restart file:
  fix style: nvt, fix ID: 1
run ${steps}
run 150000
Generated 0 of 1 mixed pair_coeff terms from geometric mixing rule
All restart file global fix info was re-assigned
Neighbor list info ...
  update: every = 1 steps, delay = 25 steps, check = yes
  max neighbors/atom: 2000, page size: 100000
  master list distance cutoff = 3
  ghost atom cutoff = 3
  binsize = 1.5, bins = 5 5 5
  1 neighbor lists, perpetual/occasional/extra = 1 0 0
  (1) pair lj/cut, perpetual
      attributes: half, newton on
      pair build: half/bin/atomonly/newton
      stencil: half/bin/3d
      bin: standard
Per MPI rank memory allocation (min/avg/max) = 4.116 | 4.116 | 4.116 Mbytes
   Step          Temp          E_pair         E_mol          TotEng         Press     
         0   0.9           -6.013634       0             -4.667384       9.8280457    
      5000   0.9005116     -6.2479894      0             -4.9009742      8.3249335    
     10000   0.87226676    -6.2711683      0             -4.9664026      8.078082     
     15000   0.8235443     -6.1574685      0             -4.9255835      8.838807     
     20000   0.86054107    -6.0651929      0             -4.7779669      9.4640291    
     25000   0.9042106     -6.3473352      0             -4.9947868      7.7294612    
     30000   0.87445365    -6.1820119      0             -4.873975       8.6757513    
     35000   0.96948244    -6.1509709      0             -4.7007868      9.1836484    
     40000   0.89660082    -6.2304583      0             -4.8892929      8.257903     
     45000   0.96855275    -6.1823949      0             -4.7336014      8.9227614    
     50000   0.92114945    -6.227972       0             -4.8500859      8.4679768    
     55000   0.89600698    -6.2158862      0             -4.8756091      8.5553364    
     60000   0.88575581    -6.1544618      0             -4.8295187      8.9557385    
     65000   0.87208165    -6.1853972      0             -4.8809084      8.5079058    
     70000   0.9131122     -6.2620541      0             -4.8961905      8.2468404    
     75000   0.97527867    -6.1805172      0             -4.7216629      8.8897236    
     80000   0.92150739    -6.2456656      0             -4.8672441      8.4469004    
     85000   0.95501926    -6.2538155      0             -4.8252659      8.4954864    
     90000   0.85346848    -6.2525374      0             -4.9758908      8.0978077    
     95000   0.91394782    -6.1505092      0             -4.7833956      8.8812762    
    100000   0.85819388    -6.052582       0             -4.768867       9.2239218    
    105000   0.95848124    -6.3001269      0             -4.8663987      8.0699577    
    110000   0.94223932    -6.1396417      0             -4.7302087      8.9239169    
    115000   0.97108647    -6.2521621      0             -4.7995786      8.516912     
    120000   0.94367913    -6.1837884      0             -4.7722017      8.6776831    
    125000   0.96255622    -6.1898306      0             -4.7500069      8.7940615    
    130000   0.90496464    -6.3213062      0             -4.96763        7.9040602    
    135000   0.85667029    -6.1940998      0             -4.9126639      8.6202782    
    140000   0.90632395    -6.2207103      0             -4.8650007      8.4149087    
    145000   0.89971611    -6.2213821      0             -4.8755568      8.5039167    
    150000   0.86682428    -6.268331       0             -4.9717064      8.0526361    
Loop time of 15.3118 on 4 procs for 150000 steps with 360 atoms

Performance: 1692812.276 tau/day, 9796.367 timesteps/s, 3.527 Matom-step/s
99.5% CPU use with 4 MPI tasks x 1 OpenMP threads

MPI task timing breakdown:
Section |  min time  |  avg time  |  max time  |%varavg| %total
---------------------------------------------------------------
Pair    | 7.6979     | 7.8893     | 8.0977     |   6.2 | 51.52
Neigh   | 0.65456    | 0.66285    | 0.6753     |   1.0 |  4.33
Comm    | 5.657      | 5.9774     | 6.3245     |   9.8 | 39.04
Output  | 0.0021683  | 0.0022709  | 0.0025666  |   0.4 |  0.01
Modify  | 0.41721    | 0.60551    | 0.79268    |  22.6 |  3.95
Other   |            | 0.1745     |            |       |  1.14

Nlocal:             90 ave          92 max          86 min
Histogram: 1 0 0 0 0 0 0 0 2 1
Nghost:        1233.25 ave        1252 max        1216 min
Histogram: 1 0 1 0 0 0 1 0 0 1
Neighs:        5200.25 ave        5370 max        4920 min
Histogram: 1 0 0 0 0 0 1 0 1 1

Total # of neighbors = 20801
Ave neighs/atom = 57.780556
Neighbor list builds = 3839
Dangerous builds = 0
Total wall time: 0:00:15
