
include ${pot}.lmp
include kalj.lmp
units lj
atom_style atomic

variable dimensions equal 3
variable density equal 1.2
variable fraca equal 0.8

dimension ${dimensions}
dimension 3
read_restart ${prevbasename}.final.lmprestart.${prevsteps}
read_restart equil/kalj_T0.55_n360_v300_3000000_1.final.lmprestart.${prevsteps}
read_restart equil/kalj_T0.55_n360_v300_3000000_1.final.lmprestart.3000000
Reading restart file ...
  restart file = 15 Sep 2022, LAMMPS = 15 Sep 2022
  restoring atom style atomic from restart
  orthogonal box = (0 0 0) to (6.6943295 6.6943295 6.6943295)
  1 by 2 by 2 MPI processor grid
  restoring pair style lj/cut from restart
  360 atoms
  read_restart CPU = 0.002 seconds
include ${pot}_particles.lmp
include kalj_particles.lmp
mass * 1.0 #  set mass 1.0 for all types

pair_style lj/cut 2.5
#pair coeffs type1 type2 eps sigma
pair_coeff 1 1 1.0 1.00 2.5
pair_coeff 1 2 1.5 0.80 2.0
pair_coeff 2 2 0.5 0.88 2.2
pair_modify shift yes
reset_timestep 0

print "Setting up annealing run"
Setting up annealing run
dump 1 all atom ${dumptime} ${basename}.lammpstrj
dump 1 all atom 1000000 ${basename}.lammpstrj
dump 1 all atom 1000000 equil/kalj_T0.5_n360_v300_10000000_1.lammpstrj
#dump_modify 1 sort id scale no

restart ${restarttime} ${basename}.restart
restart 10000000 ${basename}.restart
restart 10000000 equil/kalj_T0.5_n360_v300_10000000_1.restart
restart ${steps} ${basename}.final.lmprestart
restart 10000000 ${basename}.final.lmprestart
restart 10000000 equil/kalj_T0.5_n360_v300_10000000_1.final.lmprestart

thermo ${thermotime}
thermo 100000
timestep ${timestep}
timestep 0.003

neighbor 0.5 bin
neigh_modify every 1 delay ${neighborstep} check yes
neigh_modify every 1 delay 25 check yes

velocity all create ${temp} ${id} dist gaussian
velocity all create 0.5 ${id} dist gaussian
velocity all create 0.5 1 dist gaussian
fix 1 all nvt temp ${temp} ${temp} ${taut}
fix 1 all nvt temp 0.5 ${temp} ${taut}
fix 1 all nvt temp 0.5 0.5 ${taut}
fix 1 all nvt temp 0.5 0.5 0.3
Resetting global fix info from restart file:
  fix style: nvt, fix ID: 1
run ${steps}
run 10000000
Generated 0 of 1 mixed pair_coeff terms from geometric mixing rule
All restart file global fix info was re-assigned
Neighbor list info ...
  update: every = 1 steps, delay = 25 steps, check = yes
  max neighbors/atom: 2000, page size: 100000
  master list distance cutoff = 3
  ghost atom cutoff = 3
  binsize = 1.5, bins = 5 5 5
  1 neighbor lists, perpetual/occasional/extra = 1 0 0
  (1) pair lj/cut, perpetual
      attributes: half, newton on
      pair build: half/bin/atomonly/newton
      stencil: half/bin/3d
      bin: standard
Per MPI rank memory allocation (min/avg/max) = 4.114 | 4.115 | 4.116 Mbytes
   Step          Temp          E_pair         E_mol          TotEng         Press     
         0   0.5           -6.7588133      0             -6.0108967      4.7051573    
    100000   0.49088327    -6.9451243      0             -6.2108448      3.4383502    
    200000   0.49958062    -6.9109859      0             -6.1636966      3.7688859    
    300000   0.55557412    -6.8773873      0             -6.046341       3.9354387    
    400000   0.52900519    -6.8809335      0             -6.0896299      4.0641837    
    500000   0.53508832    -6.965458       0             -6.165055       3.4330239    
    600000   0.52416757    -6.9169344      0             -6.1328671      3.7981828    
    700000   0.50505691    -6.8962362      0             -6.1407552      3.9311798    
    800000   0.50682972    -6.8983267      0             -6.140194       3.9440212    
    900000   0.49028833    -6.9522042      0             -6.2188146      3.3793048    
   1000000   0.50944254    -6.9353764      0             -6.1733352      3.5284084    
   1100000   0.51552842    -6.9363227      0             -6.1651781      3.6627142    
   1200000   0.46777125    -6.8730531      0             -6.1733452      4.030719     
   1300000   0.49769457    -6.9401631      0             -6.195695       3.5745609    
   1400000   0.48368759    -6.8879843      0             -6.1644683      3.9008791    
   1500000   0.53885112    -6.9025283      0             -6.0964968      3.9180014    
   1600000   0.51112406    -6.8632032      0             -6.0986468      4.1300873    
   1700000   0.50231624    -6.8811633      0             -6.1297819      4.1514422    
   1800000   0.48167861    -6.9083548      0             -6.1878439      3.8614132    
   1900000   0.50121737    -6.8797705      0             -6.1300329      3.9953973    
   2000000   0.48172401    -6.8883156      0             -6.1677368      3.863705     
   2100000   0.54579386    -6.8625482      0             -6.0461315      4.049632     
   2200000   0.55923161    -6.943122       0             -6.1066047      3.5782501    
   2300000   0.47290942    -6.9095022      0             -6.2021085      3.799881     
   2400000   0.49506106    -6.8992411      0             -6.1587122      3.7610815    
   2500000   0.46411914    -6.9670849      0             -6.27284        3.3311748    
   2600000   0.53116132    -6.8809423      0             -6.0864135      3.9308121    
   2700000   0.4907778     -6.8612054      0             -6.1270836      4.0346551    
   2800000   0.46911354    -6.9401844      0             -6.2384687      3.4934891    
   2900000   0.49716255    -6.9221597      0             -6.1784874      3.6421494    
   3000000   0.49423937    -6.983966       0             -6.2446663      3.5135887    
   3100000   0.50291576    -6.9775625      0             -6.2252844      3.4921122    
   3200000   0.50331598    -6.9487958      0             -6.195919       3.6517484    
   3300000   0.52967767    -6.9073801      0             -6.1150706      3.742297     
   3400000   0.53028791    -6.9282313      0             -6.135009       3.4990279    
   3500000   0.49792713    -6.9086871      0             -6.1638711      3.7426252    
   3600000   0.49742054    -6.8870325      0             -6.1429743      3.8851846    
   3700000   0.50134397    -6.9109337      0             -6.1610066      3.6451783    
   3800000   0.49491804    -6.9083416      0             -6.1680267      3.9233281    
   3900000   0.49362242    -6.9313813      0             -6.1930044      3.4924095    
   4000000   0.51175652    -6.8989479      0             -6.1334454      3.7998158    
   4100000   0.51668176    -6.9514853      0             -6.1786155      3.4253509    
   4200000   0.45778129    -6.9051085      0             -6.220344       3.8297403    
   4300000   0.50244841    -6.9035168      0             -6.1519377      3.823969     
   4400000   0.49754148    -6.9686167      0             -6.2243776      3.4420344    
   4500000   0.54217399    -6.8692178      0             -6.0582158      4.0209736    
   4600000   0.48761234    -6.9056668      0             -6.17628        3.7806506    
   4700000   0.49301361    -6.9031882      0             -6.165722       3.9560768    
   4800000   0.49705186    -6.8580408      0             -6.1145341      3.9532264    
   4900000   0.47731082    -6.9152681      0             -6.2012907      3.6270745    
   5000000   0.49496716    -6.9090031      0             -6.1686147      3.6441697    
   5100000   0.50001032    -6.9138914      0             -6.1659593      3.8276836    
   5200000   0.4747997     -6.9462652      0             -6.236044       3.6999062    
   5300000   0.49010231    -6.9296589      0             -6.1965475      3.5879373    
   5400000   0.501024      -6.889047       0             -6.1395986      3.9129284    
   5500000   0.50305991    -6.9191175      0             -6.1666237      3.6259439    
   5600000   0.49601763    -6.9729445      0             -6.2309848      3.3783638    
   5700000   0.50718848    -6.9392282      0             -6.1805587      3.6777122    
   5800000   0.50958429    -6.9021919      0             -6.1399388      3.8025898    
   5900000   0.50750225    -6.9023557      0             -6.143217       3.8870337    
   6000000   0.50612933    -6.877538       0             -6.1204529      4.1114592    
   6100000   0.51112184    -6.8951001      0             -6.1305471      3.852812     
   6200000   0.51845707    -6.889186       0             -6.1136607      3.9130517    
   6300000   0.49712495    -6.9457322      0             -6.2021162      3.5306989    
   6400000   0.52611575    -6.9383179      0             -6.1513364      3.6238318    
   6500000   0.49648242    -6.9169783      0             -6.1743233      3.8414129    
   6600000   0.51028617    -6.969302       0             -6.2059989      3.3890639    
   6700000   0.56088978    -6.9388499      0             -6.0998522      3.5686136    
   6800000   0.51128766    -6.9095703      0             -6.1447691      3.7828304    
   6900000   0.48657439    -6.924911       0             -6.1970768      3.7132018    
   7000000   0.52214385    -6.8583926      0             -6.0773524      4.0170136    
   7100000   0.51206221    -6.9166681      0             -6.1507084      3.7602192    
   7200000   0.45029247    -6.9290464      0             -6.2554839      3.6653801    
   7300000   0.47148891    -6.9242123      0             -6.2189435      3.5417447    
   7400000   0.48744726    -6.9088005      0             -6.1796607      3.7934958    
   7500000   0.53760613    -6.9406483      0             -6.1364791      3.5568388    
   7600000   0.53393239    -6.8504868      0             -6.0518129      4.154996     
   7700000   0.53581994    -6.8534724      0             -6.051975       4.0413542    
   7800000   0.50734693    -6.9318342      0             -6.1729277      3.6778853    
   7900000   0.47719642    -6.833293       0             -6.1194867      4.1714401    
   8000000   0.51919268    -6.9026922      0             -6.1260665      3.7822571    
   8100000   0.53523889    -6.8916595      0             -6.0910313      3.9719622    
   8200000   0.48135346    -6.9379769      0             -6.2179524      3.4368184    
   8300000   0.50349205    -6.944345       0             -6.1912048      3.4877782    
   8400000   0.49609703    -6.85798        0             -6.1159015      4.0571237    
   8500000   0.51780592    -6.9557518      0             -6.1812004      3.5766317    
   8600000   0.47211512    -6.8773975      0             -6.171192       4.1002414    
   8700000   0.50542008    -6.8642458      0             -6.1082216      4.0519064    
   8800000   0.50520503    -6.9572428      0             -6.2015402      3.4513482    
   8900000   0.48804735    -6.8016921      0             -6.0716546      4.2557041    
   9000000   0.53530911    -6.9049991      0             -6.1042659      3.8124468    
   9100000   0.50307443    -6.9077856      0             -6.1552701      3.735781     
   9200000   0.52888026    -6.9275893      0             -6.1364725      3.7562522    
   9300000   0.48907575    -6.9638231      0             -6.2322473      3.4374903    
   9400000   0.46380986    -6.9036405      0             -6.2098583      3.8107831    
   9500000   0.51160143    -6.945098       0             -6.1798275      3.6037928    
   9600000   0.49588188    -6.9859804      0             -6.2442237      3.2067814    
   9700000   0.48739256    -6.9892694      0             -6.2602113      3.2036021    
   9800000   0.51139635    -6.9614516      0             -6.1964879      3.5486022    
   9900000   0.51027958    -6.9444076      0             -6.1811144      3.4788265    
  10000000   0.4879122     -6.8919193      0             -6.162084       3.7676154    
Loop time of 989.699 on 4 procs for 10000000 steps with 360 atoms

Performance: 2618976.818 tau/day, 10104.077 timesteps/s, 3.637 Matom-step/s
99.6% CPU use with 4 MPI tasks x 1 OpenMP threads

MPI task timing breakdown:
Section |  min time  |  avg time  |  max time  |%varavg| %total
---------------------------------------------------------------
Pair    | 511.21     | 525.12     | 541.68     |  47.4 | 53.06
Neigh   | 44.876     | 45.996     | 47.434     |  13.5 |  4.65
Comm    | 353.4      | 366.02     | 394.85     |  88.2 | 36.98
Output  | 0.0056999  | 0.0061401  | 0.0074232  |   0.9 |  0.00
Modify  | 27.535     | 41.451     | 55.843     | 207.1 |  4.19
Other   |            | 11.1       |            |       |  1.12

Nlocal:             90 ave          95 max          86 min
Histogram: 1 1 0 0 0 0 1 0 0 1
Nghost:         1248.5 ave        1268 max        1224 min
Histogram: 1 0 0 0 1 0 0 1 0 1
Neighs:        5200.75 ave        5430 max        4947 min
Histogram: 1 0 1 0 0 0 0 0 1 1

Total # of neighbors = 20803
Ave neighs/atom = 57.786111
Neighbor list builds = 265775
Dangerous builds = 639
Total wall time: 0:16:29
