
include ${pot}.lmp
include kalj.lmp
units lj
atom_style atomic

variable dimensions equal 3
variable density equal 1.2
variable fraca equal 0.8

dimension ${dimensions}
dimension 3
read_restart ${prevbasename}.final.lmprestart.${prevsteps}
read_restart equil/kalj_T0.6_n360_v300_1000000_1.final.lmprestart.${prevsteps}
read_restart equil/kalj_T0.6_n360_v300_1000000_1.final.lmprestart.1000000
Reading restart file ...
  restart file = 15 Sep 2022, LAMMPS = 15 Sep 2022
  restoring atom style atomic from restart
  orthogonal box = (0 0 0) to (6.6943295 6.6943295 6.6943295)
  1 by 2 by 2 MPI processor grid
  restoring pair style lj/cut from restart
  360 atoms
  read_restart CPU = 0.002 seconds
include ${pot}_particles.lmp
include kalj_particles.lmp
mass * 1.0 #  set mass 1.0 for all types

pair_style lj/cut 2.5
#pair coeffs type1 type2 eps sigma
pair_coeff 1 1 1.0 1.00 2.5
pair_coeff 1 2 1.5 0.80 2.0
pair_coeff 2 2 0.5 0.88 2.2
pair_modify shift yes
reset_timestep 0

print "Setting up annealing run"
Setting up annealing run
dump 1 all atom ${dumptime} ${basename}.lammpstrj
dump 1 all atom 300000 ${basename}.lammpstrj
dump 1 all atom 300000 equil/kalj_T0.55_n360_v300_3000000_1.lammpstrj
#dump_modify 1 sort id scale no

restart ${restarttime} ${basename}.restart
restart 3000000 ${basename}.restart
restart 3000000 equil/kalj_T0.55_n360_v300_3000000_1.restart
restart ${steps} ${basename}.final.lmprestart
restart 3000000 ${basename}.final.lmprestart
restart 3000000 equil/kalj_T0.55_n360_v300_3000000_1.final.lmprestart

thermo ${thermotime}
thermo 30000
timestep ${timestep}
timestep 0.003

neighbor 0.5 bin
neigh_modify every 1 delay ${neighborstep} check yes
neigh_modify every 1 delay 25 check yes

velocity all create ${temp} ${id} dist gaussian
velocity all create 0.55 ${id} dist gaussian
velocity all create 0.55 1 dist gaussian
fix 1 all nvt temp ${temp} ${temp} ${taut}
fix 1 all nvt temp 0.55 ${temp} ${taut}
fix 1 all nvt temp 0.55 0.55 ${taut}
fix 1 all nvt temp 0.55 0.55 0.3
Resetting global fix info from restart file:
  fix style: nvt, fix ID: 1
run ${steps}
run 3000000
Generated 0 of 1 mixed pair_coeff terms from geometric mixing rule
All restart file global fix info was re-assigned
Neighbor list info ...
  update: every = 1 steps, delay = 25 steps, check = yes
  max neighbors/atom: 2000, page size: 100000
  master list distance cutoff = 3
  ghost atom cutoff = 3
  binsize = 1.5, bins = 5 5 5
  1 neighbor lists, perpetual/occasional/extra = 1 0 0
  (1) pair lj/cut, perpetual
      attributes: half, newton on
      pair build: half/bin/atomonly/newton
      stencil: half/bin/3d
      bin: standard
Per MPI rank memory allocation (min/avg/max) = 4.117 | 4.117 | 4.118 Mbytes
   Step          Temp          E_pair         E_mol          TotEng         Press     
         0   0.55          -6.6688587      0             -5.8461504      5.3123843    
     30000   0.51993633    -6.7949717      0             -6.0172336      4.4733425    
     60000   0.5284138     -6.8639623      0             -6.0735433      4.1617467    
     90000   0.52323643    -6.8260376      0             -6.0433631      4.221309     
    120000   0.57266161    -6.7592854      0             -5.9026791      4.8723943    
    150000   0.56102283    -6.8162191      0             -5.9770224      4.3601918    
    180000   0.5757977     -6.8352371      0             -5.9739397      4.4276699    
    210000   0.52880434    -6.781851       0             -5.9908479      4.6696622    
    240000   0.53127195    -6.7906495      0             -5.9959552      4.4119487    
    270000   0.55116252    -6.883788       0             -6.0593407      3.941012     
    300000   0.52473976    -6.8574705      0             -6.0725473      4.0571969    
    330000   0.56218679    -6.7989484      0             -5.9580107      4.571666     
    360000   0.53840755    -6.7968439      0             -5.9914759      4.5419477    
    390000   0.52213331    -6.7683321      0             -5.9873077      4.5153426    
    420000   0.57225496    -6.8520028      0             -5.9960047      4.227345     
    450000   0.53587266    -6.8537531      0             -6.052177       4.1109925    
    480000   0.55894969    -6.7732984      0             -5.9372029      4.6664118    
    510000   0.54822973    -6.8491483      0             -6.029088       4.226713     
    540000   0.60413426    -6.7907666      0             -5.8870824      4.6457651    
    570000   0.52047827    -6.7909749      0             -6.0124261      4.5086932    
    600000   0.58188363    -6.7663686      0             -5.8959677      4.6754332    
    630000   0.5470333     -6.8034944      0             -5.9852238      4.5042988    
    660000   0.56979493    -6.8444604      0             -5.9921421      4.2158379    
    690000   0.58384583    -6.8956619      0             -6.0223259      4.0554085    
    720000   0.55895535    -6.8395557      0             -6.0034517      4.163601     
    750000   0.55276797    -6.7480747      0             -5.9212259      4.7066544    
    780000   0.59252303    -6.7631902      0             -5.8768745      4.8663236    
    810000   0.53474866    -6.8064996      0             -6.0066047      4.4836223    
    840000   0.55923522    -6.8062464      0             -5.9697237      4.4641771    
    870000   0.56355359    -6.7644138      0             -5.9214316      4.8611367    
    900000   0.5714585     -6.733044       0             -5.8782373      5.0445313    
    930000   0.55974832    -6.7881566      0             -5.9508664      4.6686475    
    960000   0.52648208    -6.7906871      0             -6.0031577      4.4789322    
    990000   0.52575627    -6.7911968      0             -6.004753       4.4141524    
   1020000   0.53325527    -6.7964203      0             -5.9987593      4.578851     
   1050000   0.57211556    -6.7510709      0             -5.8952814      4.8503281    
   1080000   0.55844603    -6.854417       0             -6.0190748      4.2261849    
   1110000   0.55801063    -6.7847619      0             -5.950071       4.6353885    
   1140000   0.56201222    -6.6973095      0             -5.8566329      5.1177499    
   1170000   0.5488717     -6.8489326      0             -6.027912       4.1082695    
   1200000   0.5688129     -6.7576756      0             -5.9068263      4.692686     
   1230000   0.53487759    -6.8183656      0             -6.0182778      4.3306357    
   1260000   0.54798361    -6.8517343      0             -6.0320421      4.1358635    
   1290000   0.5342442     -6.8282881      0             -6.0291478      4.4836552    
   1320000   0.52778393    -6.7966252      0             -6.0071484      4.6053513    
   1350000   0.55007939    -6.7631388      0             -5.9403117      4.7322604    
   1380000   0.58095348    -6.7881615      0             -5.9191519      4.5732346    
   1410000   0.56431519    -6.7986094      0             -5.954488       4.5905288    
   1440000   0.57012735    -6.768916       0             -5.9161005      4.5734886    
   1470000   0.55383955    -6.8506875      0             -6.0222358      4.2834999    
   1500000   0.5862289     -6.8575836      0             -5.9806829      4.2399066    
   1530000   0.55775261    -6.8216081      0             -5.9873032      4.3525526    
   1560000   0.56887673    -6.7846763      0             -5.9337315      4.4494461    
   1590000   0.56408722    -6.814478       0             -5.9706975      4.4789659    
   1620000   0.56322114    -6.7720487      0             -5.9295637      4.7563713    
   1650000   0.53787244    -6.7845436      0             -5.9799761      4.6292983    
   1680000   0.55792708    -6.7508734      0             -5.9163074      4.9696995    
   1710000   0.53953757    -6.8788759      0             -6.0718176      3.9271717    
   1740000   0.53589239    -6.8170287      0             -6.015423       4.2650594    
   1770000   0.53376462    -6.8137679      0             -6.015345       4.6293664    
   1800000   0.52011353    -6.8179847      0             -6.0399815      4.4406737    
   1830000   0.5496756     -6.8446041      0             -6.022381       4.2802059    
   1860000   0.55622461    -6.6978496      0             -5.8658303      5.2424324    
   1890000   0.58907598    -6.778147       0             -5.8969875      4.7641945    
   1920000   0.6054683     -6.7767868      0             -5.8711071      4.748553     
   1950000   0.5503082     -6.8204354      0             -5.9972661      4.4784005    
   1980000   0.52745268    -6.8911074      0             -6.1021261      3.8315881    
   2010000   0.54891068    -6.8345147      0             -6.0134358      4.4104261    
   2040000   0.54708663    -6.7431016      0             -5.9247512      4.9118572    
   2070000   0.56433258    -6.7096131      0             -5.8654656      5.2376482    
   2100000   0.54311748    -6.806319       0             -5.9939058      4.3602599    
   2130000   0.56362843    -6.763904       0             -5.9208098      4.7791565    
   2160000   0.53955861    -6.8965994      0             -6.0895096      3.7951246    
   2190000   0.54313844    -6.7290445      0             -5.9166         4.9169613    
   2220000   0.56424505    -6.7754943      0             -5.9314777      4.6664554    
   2250000   0.50305113    -6.7847337      0             -6.032253       4.5500315    
   2280000   0.53960969    -6.8237967      0             -6.0166306      4.2676768    
   2310000   0.5532207     -6.7723537      0             -5.9448278      4.641453     
   2340000   0.55592277    -6.8381364      0             -6.0065686      4.1914021    
   2370000   0.53398635    -6.8047383      0             -6.0059837      4.44761      
   2400000   0.55042996    -6.8314218      0             -6.0080703      4.3099465    
   2430000   0.55007456    -6.804761       0             -5.9819412      4.4870223    
   2460000   0.57971473    -6.8773438      0             -6.0101872      4.1220735    
   2490000   0.55860724    -6.8593664      0             -6.0237831      4.200467     
   2520000   0.55283917    -6.798876       0             -5.9719207      4.481845     
   2550000   0.54819912    -6.8105271      0             -5.9905126      4.4915489    
   2580000   0.52670745    -6.8092377      0             -6.0213711      4.4902776    
   2610000   0.57512974    -6.7379664      0             -5.8776682      4.9625369    
   2640000   0.54861778    -6.8010054      0             -5.9803646      4.3293456    
   2670000   0.51388455    -6.8170481      0             -6.0483625      4.2229446    
   2700000   0.55075652    -6.8716225      0             -6.0477825      4.1118248    
   2730000   0.57224237    -6.7484126      0             -5.8924334      4.8497072    
   2760000   0.54146642    -6.8264957      0             -6.0165521      4.2455793    
   2790000   0.5735841     -6.8172642      0             -5.959278       4.3907442    
   2820000   0.50540718    -6.8164688      0             -6.0604639      4.1318426    
   2850000   0.56845029    -6.7215546      0             -5.8712477      4.9062666    
   2880000   0.54893672    -6.7579316      0             -5.9368137      4.6233467    
   2910000   0.57650059    -6.7662689      0             -5.9039201      4.6955196    
   2940000   0.55804381    -6.8305054      0             -5.9957648      4.1572982    
   2970000   0.55828576    -6.8438205      0             -6.008718       4.3633436    
   3000000   0.55481571    -6.7588133      0             -5.9289015      4.7707534    
Loop time of 300.657 on 4 procs for 3000000 steps with 360 atoms

Performance: 2586335.362 tau/day, 9978.146 timesteps/s, 3.592 Matom-step/s
99.5% CPU use with 4 MPI tasks x 1 OpenMP threads

MPI task timing breakdown:
Section |  min time  |  avg time  |  max time  |%varavg| %total
---------------------------------------------------------------
Pair    | 152.18     | 156.79     | 160.9      |  24.8 | 52.15
Neigh   | 14.294     | 14.588     | 14.737     |   4.5 |  4.85
Comm    | 108.02     | 115.21     | 123        |  52.4 | 38.32
Output  | 0.0048879  | 0.0052899  | 0.0064909  |   1.0 |  0.00
Modify  | 7.9872     | 10.914     | 13.913     |  81.5 |  3.63
Other   |            | 3.148      |            |       |  1.05

Nlocal:             90 ave          95 max          86 min
Histogram: 2 0 0 0 0 0 0 1 0 1
Nghost:           1245 ave        1268 max        1220 min
Histogram: 1 1 0 0 0 0 0 0 0 2
Neighs:        5187.25 ave        5472 max        4870 min
Histogram: 1 1 0 0 0 0 0 0 0 2

Total # of neighbors = 20749
Ave neighs/atom = 57.636111
Neighbor list builds = 84902
Dangerous builds = 634
Total wall time: 0:05:00
